\ LP format - for model browsing. Use MPS format to capture full model detail.
Minimize
  0 B18(0) + 0 B21(0) + 0 B22(0) + 0 B25(0) + 0 B28(0) + 0 B30(0) + 0 B31(0)
   + 0 B34(0) + 0 B38(0) + 0 B39(0) + 0 B40(0) + 0 B43(0) + 0 B45(0)
   + 0 B46(0) + 0 B47(0) + 0 B48(0) + 0 B51(0) + 0 B53(0) + 0 B54(0)
   + 0 B55(0) + 0 B56(0) + 0 B58(0) + 0 B60(0) + 0 B62(0) + 0 B63(0)
   + 0 B64(0) + 0 B65(0) + 0 B68(0) + 0 B72(0) + 0 B73(0) + 0 B74(0)
   + 0 B75(0) + 0 B76(0) + 0 B77(0) + 0 B78(0) + 0 B79(0) + 0 B81(0)
   + 0 B82(0) + 0 B83(0) + 0 B84(0) + 0 B85(0) + 0 B86(0) + 0 B87(0)
   + 0 B88(0) + 0 B89(0) + 0 B90(0) + 0 B91(0) + 0 B92(0) + 0 B93(0)
   + 0 B94(0) + 0 B95(0) + 0 B97(0) + 0 B98(0) + I117(1)
Subject To
 c0: B0(18) + B1(12) = 1
 c1: B2(18) + B3(12) = 1
 c2: B4(18) + B5(12) = 1
 c3: B6(13) + B7(9) = 1
 c4: B8(13) + B9(9) = 1
 c5: B10(14) + B11(14) = 1
 c6: B12(8) + B13(16) = 1
 c7: B14(10) + B15(8) = 1
 c8: B16(8) + B17(16) = 1
 c9: - 1e+06 B0(18) + C99(19) <= 0
 c10: - 1e+06 B1(12) + C100(13) <= 0
 c11: - 1e+06 B2(18) + C101(19) <= 0
 c12: - 1e+06 B3(12) + C102(13) <= 0
 c13: - 1e+06 B4(18) + C103(18) <= 0
 c14: - 1e+06 B5(12) + C104(12) <= 0
 c15: - 1e+06 B6(13) + C105(16) <= 0
 c16: - 1e+06 B7(9) + C106(12) <= 0
 c17: - 1e+06 B8(13) + C107(14) <= 0
 c18: - 1e+06 B9(9) + C108(10) <= 0
 c19: - 1e+06 B10(14) + C109(14) <= 0
 c20: - 1e+06 B11(14) + C110(14) <= 0
 c21: - 1e+06 B12(8) + C111(9) <= 0
 c22: - 1e+06 B13(16) + C112(17) <= 0
 c23: - 1e+06 B14(10) + C113(11) <= 0
 c24: - 1e+06 B15(8) + C114(9) <= 0
 c25: - 1e+06 B16(8) + C115(8) <= 0
 c26: - 1e+06 B17(16) + C116(16) <= 0
 c27: - 1e+06 B0(18) - 1e+06 B2(18) - 1e+06 B19(4) + C99(19) - C101(19)
   >= -2.999994e+06
 c28: - 1e+06 B0(18) - 1e+06 B2(18) + 1e+06 B19(4) - C99(19) + C101(19)
   >= -1.999983e+06
 c29: - 1e+06 B1(12) - 1e+06 B3(12) - 1e+06 B19(4) + C100(13) - C102(13)
   >= -2.99998e+06
 c30: - 1e+06 B1(12) - 1e+06 B3(12) + 1e+06 B19(4) - C100(13) + C102(13)
   >= -1.99999e+06
 c31: - 1e+06 B0(18) - 1e+06 B4(18) - 1e+06 B20(4) + C99(19) - C103(18)
   >= -2.999987e+06
 c32: - 1e+06 B0(18) - 1e+06 B4(18) + 1e+06 B20(4) - C99(19) + C103(18)
   >= -1.999973e+06
 c33: - 1e+06 B1(12) - 1e+06 B5(12) - 1e+06 B20(4) + C100(13) - C104(12)
   >= -2.999993e+06
 c34: - 1e+06 B1(12) - 1e+06 B5(12) + 1e+06 B20(4) - C100(13) + C104(12)
   >= -1.999994e+06
 c35: - 1e+06 B0(18) - 1e+06 B11(14) - 1e+06 B23(2) + C99(19) - C110(14)
   >= -2.99999e+06
 c36: - 1e+06 B0(18) - 1e+06 B11(14) + 1e+06 B23(2) - C99(19) + C110(14)
   >= -1.999983e+06
 c37: - 1e+06 B0(18) - 1e+06 B13(16) - 1e+06 B24(2) + C99(19) - C112(17)
   >= -2.999986e+06
 c38: - 1e+06 B0(18) - 1e+06 B13(16) + 1e+06 B24(2) - C99(19) + C112(17)
   >= -1.999994e+06
 c39: - 1e+06 B0(18) - 1e+06 B17(16) - 1e+06 B26(2) + C99(19) - C116(16)
   >= -2.999985e+06
 c40: - 1e+06 B0(18) - 1e+06 B17(16) + 1e+06 B26(2) - C99(19) + C116(16)
   >= -1.999978e+06
 c41: - 1e+06 B0(18) - 1e+06 B2(18) - 1e+06 B27(4) - C99(19) + C101(19)
   >= -2.999983e+06
 c42: - 1e+06 B0(18) - 1e+06 B2(18) + 1e+06 B27(4) + C99(19) - C101(19)
   >= -1.999994e+06
 c43: - 1e+06 B1(12) - 1e+06 B3(12) - 1e+06 B27(4) - C100(13) + C102(13)
   >= -2.99999e+06
 c44: - 1e+06 B1(12) - 1e+06 B3(12) + 1e+06 B27(4) + C100(13) - C102(13)
   >= -1.99998e+06
 c45: - 1e+06 B2(18) - 1e+06 B4(18) - 1e+06 B29(4) + C101(19) - C103(18)
   >= -2.999991e+06
 c46: - 1e+06 B2(18) - 1e+06 B4(18) + 1e+06 B29(4) - C101(19) + C103(18)
   >= -1.999973e+06
 c47: - 1e+06 B3(12) - 1e+06 B5(12) - 1e+06 B29(4) + C102(13) - C104(12)
   >= -2.999991e+06
 c48: - 1e+06 B3(12) - 1e+06 B5(12) + 1e+06 B29(4) - C102(13) + C104(12)
   >= -1.999986e+06
 c49: - 1e+06 B2(18) - 1e+06 B11(14) - 1e+06 B32(2) + C101(19) - C110(14)
   >= -2.999994e+06
 c50: - 1e+06 B2(18) - 1e+06 B11(14) + 1e+06 B32(2) - C101(19) + C110(14)
   >= -1.999989e+06
 c51: - 1e+06 B2(18) - 1e+06 B13(16) - 1e+06 B33(2) + C101(19) - C112(17)
   >= -2.999993e+06
 c52: - 1e+06 B2(18) - 1e+06 B13(16) + 1e+06 B33(2) - C101(19) + C112(17)
   >= -1.999992e+06
 c53: - 1e+06 B2(18) - 1e+06 B17(16) - 1e+06 B35(2) + C101(19) - C116(16)
   >= -2.999987e+06
 c54: - 1e+06 B2(18) - 1e+06 B17(16) + 1e+06 B35(2) - C101(19) + C116(16)
   >= -1.999994e+06
 c55: - 1e+06 B0(18) - 1e+06 B4(18) - 1e+06 B36(4) - C99(19) + C103(18)
   >= -2.999973e+06
 c56: - 1e+06 B0(18) - 1e+06 B4(18) + 1e+06 B36(4) + C99(19) - C103(18)
   >= -1.999987e+06
 c57: - 1e+06 B1(12) - 1e+06 B5(12) - 1e+06 B36(4) - C100(13) + C104(12)
   >= -2.999994e+06
 c58: - 1e+06 B1(12) - 1e+06 B5(12) + 1e+06 B36(4) + C100(13) - C104(12)
   >= -1.999993e+06
 c59: - 1e+06 B2(18) - 1e+06 B4(18) - 1e+06 B37(4) - C101(19) + C103(18)
   >= -2.999973e+06
 c60: - 1e+06 B2(18) - 1e+06 B4(18) + 1e+06 B37(4) + C101(19) - C103(18)
   >= -1.999991e+06
 c61: - 1e+06 B3(12) - 1e+06 B5(12) - 1e+06 B37(4) - C102(13) + C104(12)
   >= -2.999986e+06
 c62: - 1e+06 B3(12) - 1e+06 B5(12) + 1e+06 B37(4) + C102(13) - C104(12)
   >= -1.999991e+06
 c63: - 1e+06 B4(18) - 1e+06 B11(14) - 1e+06 B41(2) + C103(18) - C110(14)
   >= -2.99999e+06
 c64: - 1e+06 B4(18) - 1e+06 B11(14) + 1e+06 B41(2) - C103(18) + C110(14)
   >= -1.999985e+06
 c65: - 1e+06 B4(18) - 1e+06 B13(16) - 1e+06 B42(2) + C103(18) - C112(17)
   >= -2.999996e+06
 c66: - 1e+06 B4(18) - 1e+06 B13(16) + 1e+06 B42(2) - C103(18) + C112(17)
   >= -1.999975e+06
 c67: - 1e+06 B4(18) - 1e+06 B17(16) - 1e+06 B44(2) + C103(18) - C116(16)
   >= -2.999989e+06
 c68: - 1e+06 B4(18) - 1e+06 B17(16) + 1e+06 B44(2) - C103(18) + C116(16)
   >= -1.999975e+06
 c69: - 1e+06 B6(13) - 1e+06 B8(13) - 1e+06 B49(4) + C105(16) - C107(14)
   >= -2.99998e+06
 c70: - 1e+06 B6(13) - 1e+06 B8(13) + 1e+06 B49(4) - C105(16) + C107(14)
   >= -1.999981e+06
 c71: - 1e+06 B7(9) - 1e+06 B9(9) - 1e+06 B49(4) + C106(12) - C108(10)
   >= -2.999993e+06
 c72: - 1e+06 B7(9) - 1e+06 B9(9) + 1e+06 B49(4) - C106(12) + C108(10)
   >= -1.99999e+06
 c73: - 1e+06 B6(13) - 1e+06 B10(14) - 1e+06 B50(2) + C105(16) - C109(14)
   >= -2.999993e+06
 c74: - 1e+06 B6(13) - 1e+06 B10(14) + 1e+06 B50(2) - C105(16) + C109(14)
   >= -1.999993e+06
 c75: - 1e+06 B6(13) - 1e+06 B14(10) - 1e+06 B52(4) + C105(16) - C113(11)
   >= -2.999986e+06
 c76: - 1e+06 B6(13) - 1e+06 B14(10) + 1e+06 B52(4) - C105(16) + C113(11)
   >= -1.999994e+06
 c77: - 1e+06 B7(9) - 1e+06 B15(8) - 1e+06 B52(4) + C106(12) - C114(9)
   >= -2.99999e+06
 c78: - 1e+06 B7(9) - 1e+06 B15(8) + 1e+06 B52(4) - C106(12) + C114(9)
   >= -1.999987e+06
 c79: - 1e+06 B6(13) - 1e+06 B8(13) - 1e+06 B57(4) - C105(16) + C107(14)
   >= -2.999981e+06
 c80: - 1e+06 B6(13) - 1e+06 B8(13) + 1e+06 B57(4) + C105(16) - C107(14)
   >= -1.99998e+06
 c81: - 1e+06 B7(9) - 1e+06 B9(9) - 1e+06 B57(4) - C106(12) + C108(10)
   >= -2.99999e+06
 c82: - 1e+06 B7(9) - 1e+06 B9(9) + 1e+06 B57(4) + C106(12) - C108(10)
   >= -1.999993e+06
 c83: - 1e+06 B8(13) - 1e+06 B10(14) - 1e+06 B59(2) + C107(14) - C109(14)
   >= -2.999994e+06
 c84: - 1e+06 B8(13) - 1e+06 B10(14) + 1e+06 B59(2) - C107(14) + C109(14)
   >= -1.999993e+06
 c85: - 1e+06 B8(13) - 1e+06 B14(10) - 1e+06 B61(4) + C107(14) - C113(11)
   >= -2.999994e+06
 c86: - 1e+06 B8(13) - 1e+06 B14(10) + 1e+06 B61(4) - C107(14) + C113(11)
   >= -1.999991e+06
 c87: - 1e+06 B9(9) - 1e+06 B15(8) - 1e+06 B61(4) + C108(10) - C114(9)
   >= -2.999975e+06
 c88: - 1e+06 B9(9) - 1e+06 B15(8) + 1e+06 B61(4) - C108(10) + C114(9)
   >= -1.999987e+06
 c89: - 1e+06 B6(13) - 1e+06 B10(14) - 1e+06 B66(2) - C105(16) + C109(14)
   >= -2.999993e+06
 c90: - 1e+06 B6(13) - 1e+06 B10(14) + 1e+06 B66(2) + C105(16) - C109(14)
   >= -1.999993e+06
 c91: - 1e+06 B8(13) - 1e+06 B10(14) - 1e+06 B67(2) - C107(14) + C109(14)
   >= -2.999993e+06
 c92: - 1e+06 B8(13) - 1e+06 B10(14) + 1e+06 B67(2) + C107(14) - C109(14)
   >= -1.999994e+06
 c93: - 1e+06 B11(14) - 1e+06 B13(16) - 1e+06 B69(2) + C110(14) - C112(17)
   >= -2.999986e+06
 c94: - 1e+06 B11(14) - 1e+06 B13(16) + 1e+06 B69(2) - C110(14) + C112(17)
   >= -1.99999e+06
 c95: - 1e+06 B10(14) - 1e+06 B14(10) - 1e+06 B70(2) + C109(14) - C113(11)
   >= -2.999978e+06
 c96: - 1e+06 B10(14) - 1e+06 B14(10) + 1e+06 B70(2) - C109(14) + C113(11)
   >= -1.999994e+06
 c97: - 1e+06 B11(14) - 1e+06 B17(16) - 1e+06 B71(2) + C110(14) - C116(16)
   >= -2.999975e+06
 c98: - 1e+06 B11(14) - 1e+06 B17(16) + 1e+06 B71(2) - C110(14) + C116(16)
   >= -1.999984e+06
 c99: - 1e+06 B12(8) - 1e+06 B16(8) - 1e+06 B80(4) + C111(9) - C115(8)
   >= -2.99999e+06
 c100: - 1e+06 B12(8) - 1e+06 B16(8) + 1e+06 B80(4) - C111(9) + C115(8)
   >= -1.999994e+06
 c101: - 1e+06 B13(16) - 1e+06 B17(16) - 1e+06 B80(4) + C112(17) - C116(16)
   >= -2.999979e+06
 c102: - 1e+06 B13(16) - 1e+06 B17(16) + 1e+06 B80(4) - C112(17) + C116(16)
   >= -1.999992e+06
 c103: - 1e+06 B12(8) - 1e+06 B16(8) - 1e+06 B96(4) - C111(9) + C115(8)
   >= -2.999994e+06
 c104: - 1e+06 B12(8) - 1e+06 B16(8) + 1e+06 B96(4) + C111(9) - C115(8)
   >= -1.99999e+06
 c105: - 1e+06 B13(16) - 1e+06 B17(16) - 1e+06 B96(4) - C112(17) + C116(16)
   >= -2.999992e+06
 c106: - 1e+06 B13(16) - 1e+06 B17(16) + 1e+06 B96(4) + C112(17) - C116(16)
   >= -1.999979e+06
 c107: C99(19) >= 0
 c108: - 2 B0(18) + C99(19) >= 0
 c109: C100(13) >= 0
 c110: - 2 B1(12) + C100(13) >= 0
 c111: C101(19) >= 0
 c112: - 3 B2(18) + C101(19) >= 0
 c113: C102(13) >= 0
 c114: - 3 B3(12) + C102(13) >= 0
 c115: C103(18) >= 0
 c116: - 3 B4(18) + C103(18) >= 0
 c117: C104(12) >= 0
 c118: - 3 B5(12) + C104(12) >= 0
 c119: C105(16) >= 0
 c120: C105(16) >= 0
 c121: C106(12) >= 0
 c122: C106(12) >= 0
 c123: C107(14) >= 0
 c124: C107(14) >= 0
 c125: C108(10) >= 0
 c126: C108(10) >= 0
 c127: C109(14) >= 0
 c128: - B10(14) + C109(14) >= 0
 c129: C110(14) >= 0
 c130: - B11(14) + C110(14) >= 0
 c131: C111(9) >= 0
 c132: - 2 B12(8) + C111(9) >= 0
 c133: C112(17) >= 0
 c134: - 2 B13(16) + C112(17) >= 0
 c135: C113(11) >= 0
 c136: - B14(10) + C113(11) >= 0
 c137: C114(9) >= 0
 c138: - B15(8) + C114(9) >= 0
 c139: C115(8) >= 0
 c140: - B16(8) + C115(8) >= 0
 c141: C116(16) >= 0
 c142: - B17(16) + C116(16) >= 0
 c143: - 2 B2(18) - 5 B3(12) + C99(19) + C100(13) - C101(19) - C102(13)
   >= 0
 c144: - 5 B4(18) - 4 B5(12) + C101(19) + C102(13) - C103(18) - C104(12)
   >= 0
 c145: - 5 B8(13) - 5 B9(9) + C105(16) + C106(12) - C107(14) - C108(10)
   >= 0
 c146: - 2 B10(14) - 4 B11(14) + C105(16) + C106(12) - C109(14) - C110(14)
   >= 0
 c147: - 2 B14(10) - 5 B15(8) + C111(9) + C112(17) - C113(11) - C114(9)
   >= 0
 c148: - 4 B16(8) - 5 B17(16) + C113(11) + C114(9) - C115(8) - C116(16)
   >= 0
 c149: - 2 B0(18) - 4 B1(12) - 3 B6(13) - 4 B7(9) - 2 B12(8) - 2 B13(16)
   - C99(19) - C100(13) - C105(16) - C106(12) - C111(9) - C112(17)
   + I117(1) >= 0
Bounds
Binaries
 B0(18) B1(12) B2(18) B3(12) B4(18) B5(12) B6(13) B7(9) B8(13) B9(9)
 B10(14) B11(14) B12(8) B13(16) B14(10) B15(8) B16(8) B17(16) B18(0) B19(4)
 B20(4) B21(0) B22(0) B23(2) B24(2) B25(0) B26(2) B27(4) B28(0) B29(4)
 B30(0) B31(0) B32(2) B33(2) B34(0) B35(2) B36(4) B37(4) B38(0) B39(0)
 B40(0) B41(2) B42(2) B43(0) B44(2) B45(0) B46(0) B47(0) B48(0) B49(4)
 B50(2) B51(0) B52(4) B53(0) B54(0) B55(0) B56(0) B57(4) B58(0) B59(2)
 B60(0) B61(4) B62(0) B63(0) B64(0) B65(0) B66(2) B67(2) B68(0) B69(2)
 B70(2) B71(2) B72(0) B73(0) B74(0) B75(0) B76(0) B77(0) B78(0) B79(0)
 B80(4) B81(0) B82(0) B83(0) B84(0) B85(0) B86(0) B87(0) B88(0) B89(0)
 B90(0) B91(0) B92(0) B93(0) B94(0) B95(0) B96(4) B97(0) B98(0)
Generals
 I117(1)
End
